p tdp 17 45
1 5
1 6
1 7
1 12
1 14
1 15
2 3
2 4
2 6
2 10
2 15
3 10
3 11
3 13
3 15
3 17
4 5
4 6
4 10
4 16
5 6
5 7
5 16
6 15
7 9
7 11
7 14
7 16
8 9
8 12
8 13
8 14
8 17
9 11
9 13
9 14
10 11
10 16
11 13
11 16
12 14
12 15
12 17
13 17
15 17
